NAME          
OBJSENSE MIN
ROWS
 N  OBJ
 L  c1_1
 L  c2_1
 L  c3_1
 L  c4_1
 L  c5_1
 L  c6_1
 L  c7_1
 L  c8_1
 L  c9_1
 L  c10_1
 L  c11_1
 L  c12_1
 L  c13_1
 L  c14_1
 L  c15_1
 L  c16_1
 L  c17_1
 L  c18_1
 L  c19_1
 L  c20_1
 L  c21_1
 L  c22_1
 L  c23_1
 L  c24_1
 L  c25_1
 L  c26_1
 L  c27_1
 L  c28_1
 L  c29_1
 L  c30_1
 L  c31_1
 L  c32_1
 L  c33_1
 L  c34_1
 L  c35_1
 L  c36_1
 L  c37_1
 L  c38_1
 L  c39_1
 L  c40_1
 L  c41_1
 L  c42_1
 L  c43_1
 L  c44_1
 L  c45_1
 L  c46_1
 L  c47_1
 L  c48_1
 L  c49_1
 L  c50_1
 L  c51_1
 L  c52_1
 L  c53_1
 L  c54_1
 L  c55_1
 L  c56_1
 L  c57_1
 L  c58_1
 L  c59_1
 L  c60_1
 L  c61_1
 L  c62_1
 L  c63_1
 L  c64_1
 L  c65_1
 L  c66_1
 L  c67_1
 L  c68_1
 L  c69_1
 L  c70_1
 L  c71_1
 L  c72_1
 L  c73_1
 L  c74_1
 L  c75_1
 L  c76_1
 L  c77_1
 L  c78_1
 L  c79_1
 L  c80_1
 L  c81_1
 L  c82_1
 L  c83_1
 L  c84_1
 L  c85_1
 L  c86_1
 L  c87_1
 L  c88_1
 L  c89_1
 L  c90_1
 L  c91_1
 L  c92_1
 L  c93_1
 L  c94_1
 L  c95_1
 L  c96_1
 E  c1
 E  c2
 E  c3
 E  c4
 E  c5
 E  c6
 E  c7
 E  c8
 E  c9
 E  c10
 E  c11
 E  c12
 E  c13
 E  c14
 E  c15
 E  c16
 E  c17
 E  c18
 E  c19
 E  c20
 E  c21
 E  c22
 E  c23
 E  c24
 E  c25
 E  c26
 E  c27
 E  c28
 E  c29
 E  c30
 E  c31
 E  c32
 E  c33
 E  c34
 E  c35
 E  c36
 E  c37
 E  c38
 E  c39
 E  c40
 E  c41
 E  c42
 E  c43
 E  c44
 E  c45
 E  c46
 E  c47
 E  c48
 E  c49
 E  c50
 E  c51
 E  c52
 E  c53
 E  c54
 E  c55
 E  c56
 E  c57
 E  c58
 E  c59
 E  c60
 E  c61
 E  c62
 E  c63
 E  c64
 E  c65
 E  c66
 E  c67
 E  c68
 E  c69
 E  c70
 E  c71
 E  c72
 E  c73
 E  c74
 E  c75
 E  c76
 E  c77
 E  c78
 E  c79
 E  c80
 E  c81
 E  c82
 E  c83
 E  c84
 E  c85
 E  c86
 E  c87
 E  c88
 E  c89
 E  c90
 E  c91
 E  c92
 E  c93
 E  c94
 E  c95
 E  c96
 E  c97
 E  c98
 E  c99
 E  c100
 E  c101
 E  c102
 E  c103
 E  c104
 E  c105
COLUMNS
    p[1]      c15_1     1
    p[1]      c16       1
    p[1]      OBJ       30
    p[2]      c31_1     1
    p[2]      c31       1
    p[2]      OBJ       30
    p[3]      c47_1     1
    p[3]      c46       1
    p[3]      OBJ       30
    p[4]      c63_1     1
    p[4]      c61       1
    p[4]      OBJ       30
    p[5]      c79_1     1
    p[5]      c76       1
    p[5]      OBJ       30
    p[6]      c95_1     1
    p[6]      c91       1
    p[6]      OBJ       30
    I[0,0]    c16_1     1
    I[0,0]    c1        1
    I[0,0]    c16       1
    I[1,0]    c1_1      1
    I[1,0]    c2        1
    I[1,0]    c17       1
    I[2,0]    c2_1      1
    I[2,0]    c3        1
    I[2,0]    c18       1
    I[3,0]    c3_1      1
    I[3,0]    c4        1
    I[3,0]    c19       1
    I[4,0]    c4_1      1
    I[4,0]    c5        1
    I[4,0]    c20       1
    I[5,0]    c5_1      1
    I[5,0]    c6        1
    I[5,0]    c21       1
    I[6,0]    c6_1      1
    I[6,0]    c7        1
    I[6,0]    c22       1
    I[7,0]    c7_1      1
    I[7,0]    c8        1
    I[7,0]    c23       1
    I[8,0]    c8_1      1
    I[8,0]    c9        1
    I[8,0]    c24       1
    I[9,0]    c9_1      1
    I[9,0]    c10       1
    I[9,0]    c25       1
    I[10,0]   c10_1     1
    I[10,0]   c11       1
    I[10,0]   c26       1
    I[11,0]   c11_1     1
    I[11,0]   c12       1
    I[11,0]   c27       1
    I[12,0]   c12_1     1
    I[12,0]   c13       1
    I[12,0]   c28       1
    I[13,0]   c13_1     1
    I[13,0]   c14       1
    I[13,0]   c29       1
    I[14,0]   c14_1     1
    I[14,0]   c15       1
    I[14,0]   c30       1
    I[0,1]    c32_1     1
    I[0,1]    c16       -1
    I[0,1]    c31       1
    I[1,1]    c17_1     1
    I[1,1]    c17       -1
    I[1,1]    c32       1
    I[1,1]    OBJ       6
    I[2,1]    c18_1     1
    I[2,1]    c18       -1
    I[2,1]    c33       1
    I[2,1]    OBJ       9
    I[3,1]    c19_1     1
    I[3,1]    c19       -1
    I[3,1]    c34       1
    I[3,1]    OBJ       7
    I[4,1]    c20_1     1
    I[4,1]    c20       -1
    I[4,1]    c35       1
    I[4,1]    OBJ       8
    I[5,1]    c21_1     1
    I[5,1]    c21       -1
    I[5,1]    c36       1
    I[5,1]    OBJ       6
    I[6,1]    c22_1     1
    I[6,1]    c22       -1
    I[6,1]    c37       1
    I[6,1]    OBJ       6
    I[7,1]    c23_1     1
    I[7,1]    c23       -1
    I[7,1]    c38       1
    I[7,1]    OBJ       8
    I[8,1]    c24_1     1
    I[8,1]    c24       -1
    I[8,1]    c39       1
    I[8,1]    OBJ       8
    I[9,1]    c25_1     1
    I[9,1]    c25       -1
    I[9,1]    c40       1
    I[9,1]    OBJ       9
    I[10,1]   c26_1     1
    I[10,1]   c26       -1
    I[10,1]   c41       1
    I[10,1]   OBJ       7
    I[11,1]   c27_1     1
    I[11,1]   c27       -1
    I[11,1]   c42       1
    I[11,1]   OBJ       8
    I[12,1]   c28_1     1
    I[12,1]   c28       -1
    I[12,1]   c43       1
    I[12,1]   OBJ       9
    I[13,1]   c29_1     1
    I[13,1]   c29       -1
    I[13,1]   c44       1
    I[13,1]   OBJ       6
    I[14,1]   c30_1     1
    I[14,1]   c30       -1
    I[14,1]   c45       1
    I[14,1]   OBJ       6
    I[0,2]    c48_1     1
    I[0,2]    c31       -1
    I[0,2]    c46       1
    I[1,2]    c33_1     1
    I[1,2]    c32       -1
    I[1,2]    c47       1
    I[1,2]    OBJ       6
    I[2,2]    c34_1     1
    I[2,2]    c33       -1
    I[2,2]    c48       1
    I[2,2]    OBJ       9
    I[3,2]    c35_1     1
    I[3,2]    c34       -1
    I[3,2]    c49       1
    I[3,2]    OBJ       7
    I[4,2]    c36_1     1
    I[4,2]    c35       -1
    I[4,2]    c50       1
    I[4,2]    OBJ       8
    I[5,2]    c37_1     1
    I[5,2]    c36       -1
    I[5,2]    c51       1
    I[5,2]    OBJ       6
    I[6,2]    c38_1     1
    I[6,2]    c37       -1
    I[6,2]    c52       1
    I[6,2]    OBJ       6
    I[7,2]    c39_1     1
    I[7,2]    c38       -1
    I[7,2]    c53       1
    I[7,2]    OBJ       8
    I[8,2]    c40_1     1
    I[8,2]    c39       -1
    I[8,2]    c54       1
    I[8,2]    OBJ       8
    I[9,2]    c41_1     1
    I[9,2]    c40       -1
    I[9,2]    c55       1
    I[9,2]    OBJ       9
    I[10,2]   c42_1     1
    I[10,2]   c41       -1
    I[10,2]   c56       1
    I[10,2]   OBJ       7
    I[11,2]   c43_1     1
    I[11,2]   c42       -1
    I[11,2]   c57       1
    I[11,2]   OBJ       8
    I[12,2]   c44_1     1
    I[12,2]   c43       -1
    I[12,2]   c58       1
    I[12,2]   OBJ       9
    I[13,2]   c45_1     1
    I[13,2]   c44       -1
    I[13,2]   c59       1
    I[13,2]   OBJ       6
    I[14,2]   c46_1     1
    I[14,2]   c45       -1
    I[14,2]   c60       1
    I[14,2]   OBJ       6
    I[0,3]    c64_1     1
    I[0,3]    c46       -1
    I[0,3]    c61       1
    I[1,3]    c49_1     1
    I[1,3]    c47       -1
    I[1,3]    c62       1
    I[1,3]    OBJ       6
    I[2,3]    c50_1     1
    I[2,3]    c48       -1
    I[2,3]    c63       1
    I[2,3]    OBJ       9
    I[3,3]    c51_1     1
    I[3,3]    c49       -1
    I[3,3]    c64       1
    I[3,3]    OBJ       7
    I[4,3]    c52_1     1
    I[4,3]    c50       -1
    I[4,3]    c65       1
    I[4,3]    OBJ       8
    I[5,3]    c53_1     1
    I[5,3]    c51       -1
    I[5,3]    c66       1
    I[5,3]    OBJ       6
    I[6,3]    c54_1     1
    I[6,3]    c52       -1
    I[6,3]    c67       1
    I[6,3]    OBJ       6
    I[7,3]    c55_1     1
    I[7,3]    c53       -1
    I[7,3]    c68       1
    I[7,3]    OBJ       8
    I[8,3]    c56_1     1
    I[8,3]    c54       -1
    I[8,3]    c69       1
    I[8,3]    OBJ       8
    I[9,3]    c57_1     1
    I[9,3]    c55       -1
    I[9,3]    c70       1
    I[9,3]    OBJ       9
    I[10,3]   c58_1     1
    I[10,3]   c56       -1
    I[10,3]   c71       1
    I[10,3]   OBJ       7
    I[11,3]   c59_1     1
    I[11,3]   c57       -1
    I[11,3]   c72       1
    I[11,3]   OBJ       8
    I[12,3]   c60_1     1
    I[12,3]   c58       -1
    I[12,3]   c73       1
    I[12,3]   OBJ       9
    I[13,3]   c61_1     1
    I[13,3]   c59       -1
    I[13,3]   c74       1
    I[13,3]   OBJ       6
    I[14,3]   c62_1     1
    I[14,3]   c60       -1
    I[14,3]   c75       1
    I[14,3]   OBJ       6
    I[0,4]    c80_1     1
    I[0,4]    c61       -1
    I[0,4]    c76       1
    I[1,4]    c65_1     1
    I[1,4]    c62       -1
    I[1,4]    c77       1
    I[1,4]    OBJ       6
    I[2,4]    c66_1     1
    I[2,4]    c63       -1
    I[2,4]    c78       1
    I[2,4]    OBJ       9
    I[3,4]    c67_1     1
    I[3,4]    c64       -1
    I[3,4]    c79       1
    I[3,4]    OBJ       7
    I[4,4]    c68_1     1
    I[4,4]    c65       -1
    I[4,4]    c80       1
    I[4,4]    OBJ       8
    I[5,4]    c69_1     1
    I[5,4]    c66       -1
    I[5,4]    c81       1
    I[5,4]    OBJ       6
    I[6,4]    c70_1     1
    I[6,4]    c67       -1
    I[6,4]    c82       1
    I[6,4]    OBJ       6
    I[7,4]    c71_1     1
    I[7,4]    c68       -1
    I[7,4]    c83       1
    I[7,4]    OBJ       8
    I[8,4]    c72_1     1
    I[8,4]    c69       -1
    I[8,4]    c84       1
    I[8,4]    OBJ       8
    I[9,4]    c73_1     1
    I[9,4]    c70       -1
    I[9,4]    c85       1
    I[9,4]    OBJ       9
    I[10,4]   c74_1     1
    I[10,4]   c71       -1
    I[10,4]   c86       1
    I[10,4]   OBJ       7
    I[11,4]   c75_1     1
    I[11,4]   c72       -1
    I[11,4]   c87       1
    I[11,4]   OBJ       8
    I[12,4]   c76_1     1
    I[12,4]   c73       -1
    I[12,4]   c88       1
    I[12,4]   OBJ       9
    I[13,4]   c77_1     1
    I[13,4]   c74       -1
    I[13,4]   c89       1
    I[13,4]   OBJ       6
    I[14,4]   c78_1     1
    I[14,4]   c75       -1
    I[14,4]   c90       1
    I[14,4]   OBJ       6
    I[0,5]    c96_1     1
    I[0,5]    c76       -1
    I[0,5]    c91       1
    I[1,5]    c81_1     1
    I[1,5]    c77       -1
    I[1,5]    c92       1
    I[1,5]    OBJ       6
    I[2,5]    c82_1     1
    I[2,5]    c78       -1
    I[2,5]    c93       1
    I[2,5]    OBJ       9
    I[3,5]    c83_1     1
    I[3,5]    c79       -1
    I[3,5]    c94       1
    I[3,5]    OBJ       7
    I[4,5]    c84_1     1
    I[4,5]    c80       -1
    I[4,5]    c95       1
    I[4,5]    OBJ       8
    I[5,5]    c85_1     1
    I[5,5]    c81       -1
    I[5,5]    c96       1
    I[5,5]    OBJ       6
    I[6,5]    c86_1     1
    I[6,5]    c82       -1
    I[6,5]    c97       1
    I[6,5]    OBJ       6
    I[7,5]    c87_1     1
    I[7,5]    c83       -1
    I[7,5]    c98       1
    I[7,5]    OBJ       8
    I[8,5]    c88_1     1
    I[8,5]    c84       -1
    I[8,5]    c99       1
    I[8,5]    OBJ       8
    I[9,5]    c89_1     1
    I[9,5]    c85       -1
    I[9,5]    c100      1
    I[9,5]    OBJ       9
    I[10,5]   c90_1     1
    I[10,5]   c86       -1
    I[10,5]   c101      1
    I[10,5]   OBJ       7
    I[11,5]   c91_1     1
    I[11,5]   c87       -1
    I[11,5]   c102      1
    I[11,5]   OBJ       8
    I[12,5]   c92_1     1
    I[12,5]   c88       -1
    I[12,5]   c103      1
    I[12,5]   OBJ       9
    I[13,5]   c93_1     1
    I[13,5]   c89       -1
    I[13,5]   c104      1
    I[13,5]   OBJ       6
    I[14,5]   c94_1     1
    I[14,5]   c90       -1
    I[14,5]   c105      1
    I[14,5]   OBJ       6
    I[0,6]    c91       -1
    I[1,6]    c92       -1
    I[1,6]    OBJ       6
    I[2,6]    c93       -1
    I[2,6]    OBJ       9
    I[3,6]    c94       -1
    I[3,6]    OBJ       7
    I[4,6]    c95       -1
    I[4,6]    OBJ       8
    I[5,6]    c96       -1
    I[5,6]    OBJ       6
    I[6,6]    c97       -1
    I[6,6]    OBJ       6
    I[7,6]    c98       -1
    I[7,6]    OBJ       8
    I[8,6]    c99       -1
    I[8,6]    OBJ       8
    I[9,6]    c100      -1
    I[9,6]    OBJ       9
    I[10,6]   c101      -1
    I[10,6]   OBJ       7
    I[11,6]   c102      -1
    I[11,6]   OBJ       8
    I[12,6]   c103      -1
    I[12,6]   OBJ       9
    I[13,6]   c104      -1
    I[13,6]   OBJ       6
    I[14,6]   c105      -1
    I[14,6]   OBJ       6
    q[1,1]    c1_1      1
    q[1,1]    c16       -1
    q[1,1]    c17       1
    q[2,1]    c2_1      1
    q[2,1]    c16       -1
    q[2,1]    c18       1
    q[3,1]    c3_1      1
    q[3,1]    c16       -1
    q[3,1]    c19       1
    q[4,1]    c4_1      1
    q[4,1]    c16       -1
    q[4,1]    c20       1
    q[5,1]    c5_1      1
    q[5,1]    c16       -1
    q[5,1]    c21       1
    q[6,1]    c6_1      1
    q[6,1]    c16       -1
    q[6,1]    c22       1
    q[7,1]    c7_1      1
    q[7,1]    c16       -1
    q[7,1]    c23       1
    q[8,1]    c8_1      1
    q[8,1]    c16       -1
    q[8,1]    c24       1
    q[9,1]    c9_1      1
    q[9,1]    c16       -1
    q[9,1]    c25       1
    q[10,1]   c10_1     1
    q[10,1]   c16       -1
    q[10,1]   c26       1
    q[11,1]   c11_1     1
    q[11,1]   c16       -1
    q[11,1]   c27       1
    q[12,1]   c12_1     1
    q[12,1]   c16       -1
    q[12,1]   c28       1
    q[13,1]   c13_1     1
    q[13,1]   c16       -1
    q[13,1]   c29       1
    q[14,1]   c14_1     1
    q[14,1]   c16       -1
    q[14,1]   c30       1
    q[1,2]    c17_1     1
    q[1,2]    c31       -1
    q[1,2]    c32       1
    q[2,2]    c18_1     1
    q[2,2]    c31       -1
    q[2,2]    c33       1
    q[3,2]    c19_1     1
    q[3,2]    c31       -1
    q[3,2]    c34       1
    q[4,2]    c20_1     1
    q[4,2]    c31       -1
    q[4,2]    c35       1
    q[5,2]    c21_1     1
    q[5,2]    c31       -1
    q[5,2]    c36       1
    q[6,2]    c22_1     1
    q[6,2]    c31       -1
    q[6,2]    c37       1
    q[7,2]    c23_1     1
    q[7,2]    c31       -1
    q[7,2]    c38       1
    q[8,2]    c24_1     1
    q[8,2]    c31       -1
    q[8,2]    c39       1
    q[9,2]    c25_1     1
    q[9,2]    c31       -1
    q[9,2]    c40       1
    q[10,2]   c26_1     1
    q[10,2]   c31       -1
    q[10,2]   c41       1
    q[11,2]   c27_1     1
    q[11,2]   c31       -1
    q[11,2]   c42       1
    q[12,2]   c28_1     1
    q[12,2]   c31       -1
    q[12,2]   c43       1
    q[13,2]   c29_1     1
    q[13,2]   c31       -1
    q[13,2]   c44       1
    q[14,2]   c30_1     1
    q[14,2]   c31       -1
    q[14,2]   c45       1
    q[1,3]    c33_1     1
    q[1,3]    c46       -1
    q[1,3]    c47       1
    q[2,3]    c34_1     1
    q[2,3]    c46       -1
    q[2,3]    c48       1
    q[3,3]    c35_1     1
    q[3,3]    c46       -1
    q[3,3]    c49       1
    q[4,3]    c36_1     1
    q[4,3]    c46       -1
    q[4,3]    c50       1
    q[5,3]    c37_1     1
    q[5,3]    c46       -1
    q[5,3]    c51       1
    q[6,3]    c38_1     1
    q[6,3]    c46       -1
    q[6,3]    c52       1
    q[7,3]    c39_1     1
    q[7,3]    c46       -1
    q[7,3]    c53       1
    q[8,3]    c40_1     1
    q[8,3]    c46       -1
    q[8,3]    c54       1
    q[9,3]    c41_1     1
    q[9,3]    c46       -1
    q[9,3]    c55       1
    q[10,3]   c42_1     1
    q[10,3]   c46       -1
    q[10,3]   c56       1
    q[11,3]   c43_1     1
    q[11,3]   c46       -1
    q[11,3]   c57       1
    q[12,3]   c44_1     1
    q[12,3]   c46       -1
    q[12,3]   c58       1
    q[13,3]   c45_1     1
    q[13,3]   c46       -1
    q[13,3]   c59       1
    q[14,3]   c46_1     1
    q[14,3]   c46       -1
    q[14,3]   c60       1
    q[1,4]    c49_1     1
    q[1,4]    c61       -1
    q[1,4]    c62       1
    q[2,4]    c50_1     1
    q[2,4]    c61       -1
    q[2,4]    c63       1
    q[3,4]    c51_1     1
    q[3,4]    c61       -1
    q[3,4]    c64       1
    q[4,4]    c52_1     1
    q[4,4]    c61       -1
    q[4,4]    c65       1
    q[5,4]    c53_1     1
    q[5,4]    c61       -1
    q[5,4]    c66       1
    q[6,4]    c54_1     1
    q[6,4]    c61       -1
    q[6,4]    c67       1
    q[7,4]    c55_1     1
    q[7,4]    c61       -1
    q[7,4]    c68       1
    q[8,4]    c56_1     1
    q[8,4]    c61       -1
    q[8,4]    c69       1
    q[9,4]    c57_1     1
    q[9,4]    c61       -1
    q[9,4]    c70       1
    q[10,4]   c58_1     1
    q[10,4]   c61       -1
    q[10,4]   c71       1
    q[11,4]   c59_1     1
    q[11,4]   c61       -1
    q[11,4]   c72       1
    q[12,4]   c60_1     1
    q[12,4]   c61       -1
    q[12,4]   c73       1
    q[13,4]   c61_1     1
    q[13,4]   c61       -1
    q[13,4]   c74       1
    q[14,4]   c62_1     1
    q[14,4]   c61       -1
    q[14,4]   c75       1
    q[1,5]    c65_1     1
    q[1,5]    c76       -1
    q[1,5]    c77       1
    q[2,5]    c66_1     1
    q[2,5]    c76       -1
    q[2,5]    c78       1
    q[3,5]    c67_1     1
    q[3,5]    c76       -1
    q[3,5]    c79       1
    q[4,5]    c68_1     1
    q[4,5]    c76       -1
    q[4,5]    c80       1
    q[5,5]    c69_1     1
    q[5,5]    c76       -1
    q[5,5]    c81       1
    q[6,5]    c70_1     1
    q[6,5]    c76       -1
    q[6,5]    c82       1
    q[7,5]    c71_1     1
    q[7,5]    c76       -1
    q[7,5]    c83       1
    q[8,5]    c72_1     1
    q[8,5]    c76       -1
    q[8,5]    c84       1
    q[9,5]    c73_1     1
    q[9,5]    c76       -1
    q[9,5]    c85       1
    q[10,5]   c74_1     1
    q[10,5]   c76       -1
    q[10,5]   c86       1
    q[11,5]   c75_1     1
    q[11,5]   c76       -1
    q[11,5]   c87       1
    q[12,5]   c76_1     1
    q[12,5]   c76       -1
    q[12,5]   c88       1
    q[13,5]   c77_1     1
    q[13,5]   c76       -1
    q[13,5]   c89       1
    q[14,5]   c78_1     1
    q[14,5]   c76       -1
    q[14,5]   c90       1
    q[1,6]    c81_1     1
    q[1,6]    c91       -1
    q[1,6]    c92       1
    q[2,6]    c82_1     1
    q[2,6]    c91       -1
    q[2,6]    c93       1
    q[3,6]    c83_1     1
    q[3,6]    c91       -1
    q[3,6]    c94       1
    q[4,6]    c84_1     1
    q[4,6]    c91       -1
    q[4,6]    c95       1
    q[5,6]    c85_1     1
    q[5,6]    c91       -1
    q[5,6]    c96       1
    q[6,6]    c86_1     1
    q[6,6]    c91       -1
    q[6,6]    c97       1
    q[7,6]    c87_1     1
    q[7,6]    c91       -1
    q[7,6]    c98       1
    q[8,6]    c88_1     1
    q[8,6]    c91       -1
    q[8,6]    c99       1
    q[9,6]    c89_1     1
    q[9,6]    c91       -1
    q[9,6]    c100      1
    q[10,6]   c90_1     1
    q[10,6]   c91       -1
    q[10,6]   c101      1
    q[11,6]   c91_1     1
    q[11,6]   c91       -1
    q[11,6]   c102      1
    q[12,6]   c92_1     1
    q[12,6]   c91       -1
    q[12,6]   c103      1
    q[13,6]   c93_1     1
    q[13,6]   c91       -1
    q[13,6]   c104      1
    q[14,6]   c94_1     1
    q[14,6]   c91       -1
    q[14,6]   c105      1
    MARKER    'MARKER'                 'INTORG'
    y[1]      c15_1     -10000000000
    y[1]      OBJ       3000
    y[2]      c31_1     -10000000000
    y[2]      OBJ       3000
    y[3]      c47_1     -10000000000
    y[3]      OBJ       3000
    y[4]      c63_1     -10000000000
    y[4]      OBJ       3000
    y[5]      c79_1     -10000000000
    y[5]      OBJ       3000
    y[6]      c95_1     -10000000000
    y[6]      OBJ       3000
RHS
    rhs       c1_1      20
    rhs       c2_1      45
    rhs       c3_1      45
    rhs       c4_1      14
    rhs       c5_1      39
    rhs       c6_1      96
    rhs       c7_1      132
    rhs       c8_1      26
    rhs       c9_1      114
    rhs       c10_1     110
    rhs       c11_1     95
    rhs       c12_1     63
    rhs       c13_1     114
    rhs       c14_1     57
    rhs       c15_1     0
    rhs       c16_1     10000000000
    rhs       c17_1     20
    rhs       c18_1     45
    rhs       c19_1     45
    rhs       c20_1     14
    rhs       c21_1     39
    rhs       c22_1     96
    rhs       c23_1     132
    rhs       c24_1     26
    rhs       c25_1     114
    rhs       c26_1     110
    rhs       c27_1     95
    rhs       c28_1     63
    rhs       c29_1     114
    rhs       c30_1     57
    rhs       c31_1     0
    rhs       c32_1     10000000000
    rhs       c33_1     20
    rhs       c34_1     45
    rhs       c35_1     45
    rhs       c36_1     14
    rhs       c37_1     39
    rhs       c38_1     96
    rhs       c39_1     132
    rhs       c40_1     26
    rhs       c41_1     114
    rhs       c42_1     110
    rhs       c43_1     95
    rhs       c44_1     63
    rhs       c45_1     114
    rhs       c46_1     57
    rhs       c47_1     0
    rhs       c48_1     10000000000
    rhs       c49_1     20
    rhs       c50_1     45
    rhs       c51_1     45
    rhs       c52_1     14
    rhs       c53_1     39
    rhs       c54_1     96
    rhs       c55_1     132
    rhs       c56_1     26
    rhs       c57_1     114
    rhs       c58_1     110
    rhs       c59_1     95
    rhs       c60_1     63
    rhs       c61_1     114
    rhs       c62_1     57
    rhs       c63_1     0
    rhs       c64_1     10000000000
    rhs       c65_1     20
    rhs       c66_1     45
    rhs       c67_1     45
    rhs       c68_1     14
    rhs       c69_1     39
    rhs       c70_1     96
    rhs       c71_1     132
    rhs       c72_1     26
    rhs       c73_1     114
    rhs       c74_1     110
    rhs       c75_1     95
    rhs       c76_1     63
    rhs       c77_1     114
    rhs       c78_1     57
    rhs       c79_1     0
    rhs       c80_1     10000000000
    rhs       c81_1     20
    rhs       c82_1     45
    rhs       c83_1     45
    rhs       c84_1     14
    rhs       c85_1     39
    rhs       c86_1     96
    rhs       c87_1     132
    rhs       c88_1     26
    rhs       c89_1     114
    rhs       c90_1     110
    rhs       c91_1     95
    rhs       c92_1     63
    rhs       c93_1     114
    rhs       c94_1     57
    rhs       c95_1     0
    rhs       c96_1     10000000000
    rhs       c1        0
    rhs       c2        10
    rhs       c3        30
    rhs       c4        30
    rhs       c5        7
    rhs       c6        26
    rhs       c7        80
    rhs       c8        110
    rhs       c9        13
    rhs       c10       95
    rhs       c11       88
    rhs       c12       76
    rhs       c13       42
    rhs       c14       95
    rhs       c15       38
    rhs       c16       0
    rhs       c17       10
    rhs       c18       15
    rhs       c19       15
    rhs       c20       7
    rhs       c21       13
    rhs       c22       16
    rhs       c23       22
    rhs       c24       13
    rhs       c25       19
    rhs       c26       22
    rhs       c27       19
    rhs       c28       21
    rhs       c29       19
    rhs       c30       19
    rhs       c31       0
    rhs       c32       10
    rhs       c33       15
    rhs       c34       15
    rhs       c35       7
    rhs       c36       13
    rhs       c37       16
    rhs       c38       22
    rhs       c39       13
    rhs       c40       19
    rhs       c41       22
    rhs       c42       19
    rhs       c43       21
    rhs       c44       19
    rhs       c45       19
    rhs       c46       0
    rhs       c47       10
    rhs       c48       15
    rhs       c49       15
    rhs       c50       7
    rhs       c51       13
    rhs       c52       16
    rhs       c53       22
    rhs       c54       13
    rhs       c55       19
    rhs       c56       22
    rhs       c57       19
    rhs       c58       21
    rhs       c59       19
    rhs       c60       19
    rhs       c61       0
    rhs       c62       10
    rhs       c63       15
    rhs       c64       15
    rhs       c65       7
    rhs       c66       13
    rhs       c67       16
    rhs       c68       22
    rhs       c69       13
    rhs       c70       19
    rhs       c71       22
    rhs       c72       19
    rhs       c73       21
    rhs       c74       19
    rhs       c75       19
    rhs       c76       0
    rhs       c77       10
    rhs       c78       15
    rhs       c79       15
    rhs       c80       7
    rhs       c81       13
    rhs       c82       16
    rhs       c83       22
    rhs       c84       13
    rhs       c85       19
    rhs       c86       22
    rhs       c87       19
    rhs       c88       21
    rhs       c89       19
    rhs       c90       19
    rhs       c91       0
    rhs       c92       10
    rhs       c93       15
    rhs       c94       15
    rhs       c95       7
    rhs       c96       13
    rhs       c97       16
    rhs       c98       22
    rhs       c99       13
    rhs       c100      19
    rhs       c101      22
    rhs       c102      19
    rhs       c103      21
    rhs       c104      19
    rhs       c105      19
RANGES
BOUNDS
 LO bounds    p[1]      0
 PL bounds    p[1]
 LO bounds    p[2]      0
 PL bounds    p[2]
 LO bounds    p[3]      0
 PL bounds    p[3]
 LO bounds    p[4]      0
 PL bounds    p[4]
 LO bounds    p[5]      0
 PL bounds    p[5]
 LO bounds    p[6]      0
 PL bounds    p[6]
 LO bounds    I[0,0]    0
 PL bounds    I[0,0]
 LO bounds    I[1,0]    0
 PL bounds    I[1,0]
 LO bounds    I[2,0]    0
 PL bounds    I[2,0]
 LO bounds    I[3,0]    0
 PL bounds    I[3,0]
 LO bounds    I[4,0]    0
 PL bounds    I[4,0]
 LO bounds    I[5,0]    0
 PL bounds    I[5,0]
 LO bounds    I[6,0]    0
 PL bounds    I[6,0]
 LO bounds    I[7,0]    0
 PL bounds    I[7,0]
 LO bounds    I[8,0]    0
 PL bounds    I[8,0]
 LO bounds    I[9,0]    0
 PL bounds    I[9,0]
 LO bounds    I[10,0]   0
 PL bounds    I[10,0]
 LO bounds    I[11,0]   0
 PL bounds    I[11,0]
 LO bounds    I[12,0]   0
 PL bounds    I[12,0]
 LO bounds    I[13,0]   0
 PL bounds    I[13,0]
 LO bounds    I[14,0]   0
 PL bounds    I[14,0]
 LO bounds    I[0,1]    0
 PL bounds    I[0,1]
 LO bounds    I[1,1]    0
 PL bounds    I[1,1]
 LO bounds    I[2,1]    0
 PL bounds    I[2,1]
 LO bounds    I[3,1]    0
 PL bounds    I[3,1]
 LO bounds    I[4,1]    0
 PL bounds    I[4,1]
 LO bounds    I[5,1]    0
 PL bounds    I[5,1]
 LO bounds    I[6,1]    0
 PL bounds    I[6,1]
 LO bounds    I[7,1]    0
 PL bounds    I[7,1]
 LO bounds    I[8,1]    0
 PL bounds    I[8,1]
 LO bounds    I[9,1]    0
 PL bounds    I[9,1]
 LO bounds    I[10,1]   0
 PL bounds    I[10,1]
 LO bounds    I[11,1]   0
 PL bounds    I[11,1]
 LO bounds    I[12,1]   0
 PL bounds    I[12,1]
 LO bounds    I[13,1]   0
 PL bounds    I[13,1]
 LO bounds    I[14,1]   0
 PL bounds    I[14,1]
 LO bounds    I[0,2]    0
 PL bounds    I[0,2]
 LO bounds    I[1,2]    0
 PL bounds    I[1,2]
 LO bounds    I[2,2]    0
 PL bounds    I[2,2]
 LO bounds    I[3,2]    0
 PL bounds    I[3,2]
 LO bounds    I[4,2]    0
 PL bounds    I[4,2]
 LO bounds    I[5,2]    0
 PL bounds    I[5,2]
 LO bounds    I[6,2]    0
 PL bounds    I[6,2]
 LO bounds    I[7,2]    0
 PL bounds    I[7,2]
 LO bounds    I[8,2]    0
 PL bounds    I[8,2]
 LO bounds    I[9,2]    0
 PL bounds    I[9,2]
 LO bounds    I[10,2]   0
 PL bounds    I[10,2]
 LO bounds    I[11,2]   0
 PL bounds    I[11,2]
 LO bounds    I[12,2]   0
 PL bounds    I[12,2]
 LO bounds    I[13,2]   0
 PL bounds    I[13,2]
 LO bounds    I[14,2]   0
 PL bounds    I[14,2]
 LO bounds    I[0,3]    0
 PL bounds    I[0,3]
 LO bounds    I[1,3]    0
 PL bounds    I[1,3]
 LO bounds    I[2,3]    0
 PL bounds    I[2,3]
 LO bounds    I[3,3]    0
 PL bounds    I[3,3]
 LO bounds    I[4,3]    0
 PL bounds    I[4,3]
 LO bounds    I[5,3]    0
 PL bounds    I[5,3]
 LO bounds    I[6,3]    0
 PL bounds    I[6,3]
 LO bounds    I[7,3]    0
 PL bounds    I[7,3]
 LO bounds    I[8,3]    0
 PL bounds    I[8,3]
 LO bounds    I[9,3]    0
 PL bounds    I[9,3]
 LO bounds    I[10,3]   0
 PL bounds    I[10,3]
 LO bounds    I[11,3]   0
 PL bounds    I[11,3]
 LO bounds    I[12,3]   0
 PL bounds    I[12,3]
 LO bounds    I[13,3]   0
 PL bounds    I[13,3]
 LO bounds    I[14,3]   0
 PL bounds    I[14,3]
 LO bounds    I[0,4]    0
 PL bounds    I[0,4]
 LO bounds    I[1,4]    0
 PL bounds    I[1,4]
 LO bounds    I[2,4]    0
 PL bounds    I[2,4]
 LO bounds    I[3,4]    0
 PL bounds    I[3,4]
 LO bounds    I[4,4]    0
 PL bounds    I[4,4]
 LO bounds    I[5,4]    0
 PL bounds    I[5,4]
 LO bounds    I[6,4]    0
 PL bounds    I[6,4]
 LO bounds    I[7,4]    0
 PL bounds    I[7,4]
 LO bounds    I[8,4]    0
 PL bounds    I[8,4]
 LO bounds    I[9,4]    0
 PL bounds    I[9,4]
 LO bounds    I[10,4]   0
 PL bounds    I[10,4]
 LO bounds    I[11,4]   0
 PL bounds    I[11,4]
 LO bounds    I[12,4]   0
 PL bounds    I[12,4]
 LO bounds    I[13,4]   0
 PL bounds    I[13,4]
 LO bounds    I[14,4]   0
 PL bounds    I[14,4]
 LO bounds    I[0,5]    0
 PL bounds    I[0,5]
 LO bounds    I[1,5]    0
 PL bounds    I[1,5]
 LO bounds    I[2,5]    0
 PL bounds    I[2,5]
 LO bounds    I[3,5]    0
 PL bounds    I[3,5]
 LO bounds    I[4,5]    0
 PL bounds    I[4,5]
 LO bounds    I[5,5]    0
 PL bounds    I[5,5]
 LO bounds    I[6,5]    0
 PL bounds    I[6,5]
 LO bounds    I[7,5]    0
 PL bounds    I[7,5]
 LO bounds    I[8,5]    0
 PL bounds    I[8,5]
 LO bounds    I[9,5]    0
 PL bounds    I[9,5]
 LO bounds    I[10,5]   0
 PL bounds    I[10,5]
 LO bounds    I[11,5]   0
 PL bounds    I[11,5]
 LO bounds    I[12,5]   0
 PL bounds    I[12,5]
 LO bounds    I[13,5]   0
 PL bounds    I[13,5]
 LO bounds    I[14,5]   0
 PL bounds    I[14,5]
 LO bounds    I[0,6]    0
 PL bounds    I[0,6]
 LO bounds    I[1,6]    0
 PL bounds    I[1,6]
 LO bounds    I[2,6]    0
 PL bounds    I[2,6]
 LO bounds    I[3,6]    0
 PL bounds    I[3,6]
 LO bounds    I[4,6]    0
 PL bounds    I[4,6]
 LO bounds    I[5,6]    0
 PL bounds    I[5,6]
 LO bounds    I[6,6]    0
 PL bounds    I[6,6]
 LO bounds    I[7,6]    0
 PL bounds    I[7,6]
 LO bounds    I[8,6]    0
 PL bounds    I[8,6]
 LO bounds    I[9,6]    0
 PL bounds    I[9,6]
 LO bounds    I[10,6]   0
 PL bounds    I[10,6]
 LO bounds    I[11,6]   0
 PL bounds    I[11,6]
 LO bounds    I[12,6]   0
 PL bounds    I[12,6]
 LO bounds    I[13,6]   0
 PL bounds    I[13,6]
 LO bounds    I[14,6]   0
 PL bounds    I[14,6]
 LO bounds    q[1,1]    0
 PL bounds    q[1,1]
 LO bounds    q[2,1]    0
 PL bounds    q[2,1]
 LO bounds    q[3,1]    0
 PL bounds    q[3,1]
 LO bounds    q[4,1]    0
 PL bounds    q[4,1]
 LO bounds    q[5,1]    0
 PL bounds    q[5,1]
 LO bounds    q[6,1]    0
 PL bounds    q[6,1]
 LO bounds    q[7,1]    0
 PL bounds    q[7,1]
 LO bounds    q[8,1]    0
 PL bounds    q[8,1]
 LO bounds    q[9,1]    0
 PL bounds    q[9,1]
 LO bounds    q[10,1]   0
 PL bounds    q[10,1]
 LO bounds    q[11,1]   0
 PL bounds    q[11,1]
 LO bounds    q[12,1]   0
 PL bounds    q[12,1]
 LO bounds    q[13,1]   0
 PL bounds    q[13,1]
 LO bounds    q[14,1]   0
 PL bounds    q[14,1]
 LO bounds    q[1,2]    0
 PL bounds    q[1,2]
 LO bounds    q[2,2]    0
 PL bounds    q[2,2]
 LO bounds    q[3,2]    0
 PL bounds    q[3,2]
 LO bounds    q[4,2]    0
 PL bounds    q[4,2]
 LO bounds    q[5,2]    0
 PL bounds    q[5,2]
 LO bounds    q[6,2]    0
 PL bounds    q[6,2]
 LO bounds    q[7,2]    0
 PL bounds    q[7,2]
 LO bounds    q[8,2]    0
 PL bounds    q[8,2]
 LO bounds    q[9,2]    0
 PL bounds    q[9,2]
 LO bounds    q[10,2]   0
 PL bounds    q[10,2]
 LO bounds    q[11,2]   0
 PL bounds    q[11,2]
 LO bounds    q[12,2]   0
 PL bounds    q[12,2]
 LO bounds    q[13,2]   0
 PL bounds    q[13,2]
 LO bounds    q[14,2]   0
 PL bounds    q[14,2]
 LO bounds    q[1,3]    0
 PL bounds    q[1,3]
 LO bounds    q[2,3]    0
 PL bounds    q[2,3]
 LO bounds    q[3,3]    0
 PL bounds    q[3,3]
 LO bounds    q[4,3]    0
 PL bounds    q[4,3]
 LO bounds    q[5,3]    0
 PL bounds    q[5,3]
 LO bounds    q[6,3]    0
 PL bounds    q[6,3]
 LO bounds    q[7,3]    0
 PL bounds    q[7,3]
 LO bounds    q[8,3]    0
 PL bounds    q[8,3]
 LO bounds    q[9,3]    0
 PL bounds    q[9,3]
 LO bounds    q[10,3]   0
 PL bounds    q[10,3]
 LO bounds    q[11,3]   0
 PL bounds    q[11,3]
 LO bounds    q[12,3]   0
 PL bounds    q[12,3]
 LO bounds    q[13,3]   0
 PL bounds    q[13,3]
 LO bounds    q[14,3]   0
 PL bounds    q[14,3]
 LO bounds    q[1,4]    0
 PL bounds    q[1,4]
 LO bounds    q[2,4]    0
 PL bounds    q[2,4]
 LO bounds    q[3,4]    0
 PL bounds    q[3,4]
 LO bounds    q[4,4]    0
 PL bounds    q[4,4]
 LO bounds    q[5,4]    0
 PL bounds    q[5,4]
 LO bounds    q[6,4]    0
 PL bounds    q[6,4]
 LO bounds    q[7,4]    0
 PL bounds    q[7,4]
 LO bounds    q[8,4]    0
 PL bounds    q[8,4]
 LO bounds    q[9,4]    0
 PL bounds    q[9,4]
 LO bounds    q[10,4]   0
 PL bounds    q[10,4]
 LO bounds    q[11,4]   0
 PL bounds    q[11,4]
 LO bounds    q[12,4]   0
 PL bounds    q[12,4]
 LO bounds    q[13,4]   0
 PL bounds    q[13,4]
 LO bounds    q[14,4]   0
 PL bounds    q[14,4]
 LO bounds    q[1,5]    0
 PL bounds    q[1,5]
 LO bounds    q[2,5]    0
 PL bounds    q[2,5]
 LO bounds    q[3,5]    0
 PL bounds    q[3,5]
 LO bounds    q[4,5]    0
 PL bounds    q[4,5]
 LO bounds    q[5,5]    0
 PL bounds    q[5,5]
 LO bounds    q[6,5]    0
 PL bounds    q[6,5]
 LO bounds    q[7,5]    0
 PL bounds    q[7,5]
 LO bounds    q[8,5]    0
 PL bounds    q[8,5]
 LO bounds    q[9,5]    0
 PL bounds    q[9,5]
 LO bounds    q[10,5]   0
 PL bounds    q[10,5]
 LO bounds    q[11,5]   0
 PL bounds    q[11,5]
 LO bounds    q[12,5]   0
 PL bounds    q[12,5]
 LO bounds    q[13,5]   0
 PL bounds    q[13,5]
 LO bounds    q[14,5]   0
 PL bounds    q[14,5]
 LO bounds    q[1,6]    0
 PL bounds    q[1,6]
 LO bounds    q[2,6]    0
 PL bounds    q[2,6]
 LO bounds    q[3,6]    0
 PL bounds    q[3,6]
 LO bounds    q[4,6]    0
 PL bounds    q[4,6]
 LO bounds    q[5,6]    0
 PL bounds    q[5,6]
 LO bounds    q[6,6]    0
 PL bounds    q[6,6]
 LO bounds    q[7,6]    0
 PL bounds    q[7,6]
 LO bounds    q[8,6]    0
 PL bounds    q[8,6]
 LO bounds    q[9,6]    0
 PL bounds    q[9,6]
 LO bounds    q[10,6]   0
 PL bounds    q[10,6]
 LO bounds    q[11,6]   0
 PL bounds    q[11,6]
 LO bounds    q[12,6]   0
 PL bounds    q[12,6]
 LO bounds    q[13,6]   0
 PL bounds    q[13,6]
 LO bounds    q[14,6]   0
 PL bounds    q[14,6]
 BV bounds    y[1]
 BV bounds    y[2]
 BV bounds    y[3]
 BV bounds    y[4]
 BV bounds    y[5]
 BV bounds    y[6]
ENDATA
